language ESSENCE' 1.0

letting C_FunctionND be
        [[0, 0, 0, 0, 0, 0, 0, 0, 0, 0, 0, 0, 0, 0, 0, 0; int(0..15)],
         [1, 0, 0, 0, 0, 0, 0, 0, 0, 0, 0, 0, 0, 0, 0, 0; int(0..15)],
         [1, 0, 0, 0, 0, 0, 0, 0, 0, 0, 0, 0, 0, 0, 0, 0; int(0..15)],
         [1, 0, 0, 0, 0, 0, 0, 0, 0, 0, 0, 0, 0, 0, 0, 0; int(0..15)],
         [1, 0, 0, 0, 0, 0, 0, 0, 0, 0, 0, 0, 0, 0, 0, 0; int(0..15)],
         [1, 0, 0, 0, 0, 0, 0, 0, 0, 0, 0, 0, 0, 0, 0, 0; int(0..15)],
         [1, 0, 0, 0, 0, 0, 0, 0, 0, 0, 0, 0, 0, 0, 0, 0; int(0..15)],
         [0, 1, 1, 0, 0, 0, 0, 0, 0, 0, 0, 0, 0, 0, 0, 0; int(0..15)],
         [0, 1, 0, 1, 1, 0, 1, 0, 0, 0, 0, 0, 0, 0, 0, 0; int(0..15)],
         [0, 1, 0, 0, 0, 1, 0, 0, 0, 0, 0, 0, 0, 0, 0, 0; int(0..15)],
         [0, 0, 1, 1, 0, 0, 0, 0, 0, 0, 0, 0, 0, 0, 0, 0; int(0..15)],
         [0, 0, 1, 0, 1, 0, 0, 0, 0, 0, 0, 0, 0, 0, 0, 0; int(0..15)],
         [0, 0, 1, 0, 0, 1, 1, 0, 0, 0, 0, 0, 0, 0, 0, 0; int(0..15)],
         [0, 0, 0, 1, 0, 1, 0, 0, 0, 0, 0, 0, 0, 0, 0, 0; int(0..15)],
         [0, 0, 0, 0, 1, 1, 0, 0, 0, 0, 0, 0, 0, 0, 0, 0; int(0..15)],
         [0, 0, 0, 0, 0, 0, 0, 1, 1, 1, 1, 1, 1, 1, 1, 0; int(0..15)];
             int(0..15)]
$ Visualisation for C_FunctionND
$ 0 0 0 0 0 0 0 0 0 0 0 0 0 0 0 0
$ 1 0 0 0 0 0 0 0 0 0 0 0 0 0 0 0
$ 1 0 0 0 0 0 0 0 0 0 0 0 0 0 0 0
$ 1 0 0 0 0 0 0 0 0 0 0 0 0 0 0 0
$ 1 0 0 0 0 0 0 0 0 0 0 0 0 0 0 0
$ 1 0 0 0 0 0 0 0 0 0 0 0 0 0 0 0
$ 1 0 0 0 0 0 0 0 0 0 0 0 0 0 0 0
$ 0 1 1 0 0 0 0 0 0 0 0 0 0 0 0 0
$ 0 1 0 1 1 0 1 0 0 0 0 0 0 0 0 0
$ 0 1 0 0 0 1 0 0 0 0 0 0 0 0 0 0
$ 0 0 1 1 0 0 0 0 0 0 0 0 0 0 0 0
$ 0 0 1 0 1 0 0 0 0 0 0 0 0 0 0 0
$ 0 0 1 0 0 1 1 0 0 0 0 0 0 0 0 0
$ 0 0 0 1 0 1 0 0 0 0 0 0 0 0 0 0
$ 0 0 0 0 1 1 0 0 0 0 0 0 0 0 0 0
$ 0 0 0 0 0 0 0 1 1 1 1 1 1 1 1 0

letting J_FunctionND be
        [[0, 1, 2, 3, 4, 5, 6, 7, 8, 9, 10, 11, 12, 13, 14, 15; int(0..15)],
         [1, 1, 7, 8, 8, 9, 8, 7, 8, 9, 15, 15, 15, 15, 15, 15; int(0..15)],
         [2, 7, 2, 10, 11, 12, 12, 7, 15, 15, 10, 11, 12, 15, 15, 15; int(0..15)],
         [3, 8, 10, 3, 8, 13, 8, 15, 8, 15, 10, 15, 15, 13, 15, 15; int(0..15)],
         [4, 8, 11, 8, 4, 14, 8, 15, 8, 15, 15, 11, 15, 15, 14, 15; int(0..15)],
         [5, 9, 12, 13, 14, 5, 12, 15, 15, 9, 15, 15, 12, 13, 14, 15; int(0..15)],
         [6, 8, 12, 8, 8, 12, 6, 15, 8, 15, 15, 15, 12, 15, 15, 15; int(0..15)],
         [7, 7, 7, 15, 15, 15, 15, 7, 15, 15, 15, 15, 15, 15, 15, 15; int(0..15)],
         [8, 8, 15, 8, 8, 15, 8, 15, 8, 15, 15, 15, 15, 15, 15, 15; int(0..15)],
         [9, 9, 15, 15, 15, 9, 15, 15, 15, 9, 15, 15, 15, 15, 15, 15; int(0..15)],
         [10, 15, 10, 10, 15, 15, 15, 15, 15, 15, 10, 15, 15, 15, 15, 15; int(0..15)],
         [11, 15, 11, 15, 11, 15, 15, 15, 15, 15, 15, 11, 15, 15, 15, 15; int(0..15)],
         [12, 15, 12, 15, 15, 12, 12, 15, 15, 15, 15, 15, 12, 15, 15, 15; int(0..15)],
         [13, 15, 15, 13, 15, 13, 15, 15, 15, 15, 15, 15, 15, 13, 15, 15; int(0..15)],
         [14, 15, 15, 15, 14, 14, 15, 15, 15, 15, 15, 15, 15, 15, 14, 15; int(0..15)],
         [15, 15, 15, 15, 15, 15, 15, 15, 15, 15, 15, 15, 15, 15, 15, 15; int(0..15)];
             int(0..15)]
$ Visualisation for J_FunctionND
$  0  1  2  3  4  5  6  7  8  9 10 11 12 13 14 15
$  1  1  7  8  8  9  8  7  8  9 15 15 15 15 15 15
$  2  7  2 10 11 12 12  7 15 15 10 11 12 15 15 15
$  3  8 10  3  8 13  8 15  8 15 10 15 15 13 15 15
$  4  8 11  8  4 14  8 15  8 15 15 11 15 15 14 15
$  5  9 12 13 14  5 12 15 15  9 15 15 12 13 14 15
$  6  8 12  8  8 12  6 15  8 15 15 15 12 15 15 15
$  7  7  7 15 15 15 15  7 15 15 15 15 15 15 15 15
$  8  8 15  8  8 15  8 15  8 15 15 15 15 15 15 15
$  9  9 15 15 15  9 15 15 15  9 15 15 15 15 15 15
$ 10 15 10 10 15 15 15 15 15 15 10 15 15 15 15 15
$ 11 15 11 15 11 15 15 15 15 15 15 11 15 15 15 15
$ 12 15 12 15 15 12 12 15 15 15 15 15 12 15 15 15
$ 13 15 15 13 15 13 15 15 15 15 15 15 15 13 15 15
$ 14 15 15 15 14 14 15 15 15 15 15 15 15 15 14 15
$ 15 15 15 15 15 15 15 15 15 15 15 15 15 15 15 15

letting M_FunctionND be
        [[0, 0, 0, 0, 0, 0, 0, 0, 0, 0, 0, 0, 0, 0, 0, 0; int(0..15)],
         [0, 1, 0, 0, 0, 0, 0, 1, 1, 1, 0, 0, 0, 0, 0, 1; int(0..15)],
         [0, 0, 2, 0, 0, 0, 0, 2, 0, 0, 2, 2, 2, 0, 0, 2; int(0..15)],
         [0, 0, 0, 3, 0, 0, 0, 0, 3, 0, 3, 0, 0, 3, 0, 3; int(0..15)],
         [0, 0, 0, 0, 4, 0, 0, 0, 4, 0, 0, 4, 0, 0, 4, 4; int(0..15)],
         [0, 0, 0, 0, 0, 5, 0, 0, 0, 5, 0, 0, 5, 5, 5, 5; int(0..15)],
         [0, 0, 0, 0, 0, 0, 6, 0, 6, 0, 0, 0, 6, 0, 0, 6; int(0..15)],
         [0, 1, 2, 0, 0, 0, 0, 7, 1, 1, 2, 2, 2, 0, 0, 7; int(0..15)],
         [0, 1, 0, 3, 4, 0, 6, 1, 8, 1, 3, 4, 6, 3, 4, 8; int(0..15)],
         [0, 1, 0, 0, 0, 5, 0, 1, 1, 9, 0, 0, 5, 5, 5, 9; int(0..15)],
         [0, 0, 2, 3, 0, 0, 0, 2, 3, 0, 10, 2, 2, 3, 0, 10; int(0..15)],
         [0, 0, 2, 0, 4, 0, 0, 2, 4, 0, 2, 11, 2, 0, 4, 11; int(0..15)],
         [0, 0, 2, 0, 0, 5, 6, 2, 6, 5, 2, 2, 12, 5, 5, 12; int(0..15)],
         [0, 0, 0, 3, 0, 5, 0, 0, 3, 5, 3, 0, 5, 13, 5, 13; int(0..15)],
         [0, 0, 0, 0, 4, 5, 0, 0, 4, 5, 0, 4, 5, 5, 14, 14; int(0..15)],
         [0, 1, 2, 3, 4, 5, 6, 7, 8, 9, 10, 11, 12, 13, 14, 15; int(0..15)];
             int(0..15)]
$ Visualisation for M_FunctionND
$  0  0  0  0  0  0  0  0  0  0  0  0  0  0  0  0
$  0  1  0  0  0  0  0  1  1  1  0  0  0  0  0  1
$  0  0  2  0  0  0  0  2  0  0  2  2  2  0  0  2
$  0  0  0  3  0  0  0  0  3  0  3  0  0  3  0  3
$  0  0  0  0  4  0  0  0  4  0  0  4  0  0  4  4
$  0  0  0  0  0  5  0  0  0  5  0  0  5  5  5  5
$  0  0  0  0  0  0  6  0  6  0  0  0  6  0  0  6
$  0  1  2  0  0  0  0  7  1  1  2  2  2  0  0  7
$  0  1  0  3  4  0  6  1  8  1  3  4  6  3  4  8
$  0  1  0  0  0  5  0  1  1  9  0  0  5  5  5  9
$  0  0  2  3  0  0  0  2  3  0 10  2  2  3  0 10
$  0  0  2  0  4  0  0  2  4  0  2 11  2  0  4 11
$  0  0  2  0  0  5  6  2  6  5  2  2 12  5  5 12
$  0  0  0  3  0  5  0  0  3  5  3  0  5 13  5 13
$  0  0  0  0  4  5  0  0  4  5  0  4  5  5 14 14
$  0  1  2  3  4  5  6  7  8  9 10 11 12 13 14 15

letting R_Function1D be [0, 1, 1, 1, 1, 1, 1, 2, 2, 2, 2, 2, 2, 2, 2, 3; int(0..15)]
